(declare-const v1_init Int)
(declare-const v2_init Int)
(declare-const m_init Int)
(declare-const n_init Int)
(declare-const c_0 Int)
(declare-const c_1 Int)
(declare-const c_2 Int)
(declare-const c_3 Int)
(declare-const c_4 Int)
(declare-const c_5 Int)
(declare-const c_6 Int)
(declare-const c_7 Int)
(declare-const c_8 Int)
(declare-const c_9 Int)
(declare-const c_10 Int)
(declare-const c_11 Int)
(declare-const c_12 Int)
(declare-const c_13 Int)
(declare-const c_14 Int)
(declare-const c_15 Int)
(declare-const c_16 Int)
(declare-const c_17 Int)
(declare-const c_18 Int)
(declare-const c_19 Int)
(declare-const c_20 Int)
(declare-const c_21 Int)
(declare-const c_22 Int)
(declare-const c_23 Int)
(declare-const c_24 Int)
(assert (< c_0 0))
(assert (and (>= (+ (* 1 c_1 ) (* (- 1) v1_init ) ) 0) (>= (+ (* (- 1) c_1 ) (* 1 v1_init ) ) 0) (>= (+ (* 1 c_2 ) (* (- 1) v2_init ) ) 0) (>= (+ (* (- 1) c_2 ) (* 1 v2_init ) ) 0) (>= (+ (* 1 c_3 ) (* (- 1) m_init ) ) 0) (>= (+ (* (- 1) c_3 ) (* 1 m_init ) ) 0) (>= (+ (* 1 c_4 ) (* (- 1) n_init ) ) 0) (>= (+ (* (- 1) c_4 ) (* 1 n_init ) ) 0) ))
(assert (forall ((v1 Real) (v2 Real) (m Real) (n Real) ) (=> (and (>= (+ (* (- 1) 1) (* (- 1) c_5 ) (* (- 1) c_6 m ) (* (- 1) c_7 n ) (* (- 1) c_8 n ) ) 0) (>= (* 1 n ) 0) (>= (+ (* (- 1) 1) (* 1 m ) ) 0) (>= (+ (* 1 c_1 ) (* (- 1) v1 ) ) 0) (>= (+ (* (- 1) c_1 ) (* 1 v1 ) ) 0) (>= (+ (* 1 c_2 ) (* (- 1) v2 ) ) 0) (>= (+ (* (- 1) c_2 ) (* 1 v2 ) ) 0) (>= (+ (* 1 c_3 ) (* (- 1) m ) ) 0) (>= (+ (* (- 1) c_3 ) (* 1 m ) ) 0) (>= (+ (* 1 c_4 ) (* (- 1) n ) ) 0) (>= (+ (* (- 1) c_4 ) (* 1 n ) ) 0) ) (>= (+ (* 1 c_15 ) (* 1 c_16 m ) (* 1 c_17 n ) (* 1 c_18 n ) ) 0) )))
(assert (forall ((v1 Real) (v2 Real) (m Real) (n Real) ) (=> (and (>= (+ (* (- 1) 1) (* (- 1) c_5 ) (* (- 1) c_6 m ) (* (- 1) c_7 n ) (* (- 1) c_8 n ) ) 0) (>= (* 1 n ) 0) (>= (+ (* (- 1) 1) (* 1 m ) ) 0) (>= (+ (* 1 c_1 ) (* (- 1) v1 ) ) 0) (>= (+ (* (- 1) c_1 ) (* 1 v1 ) ) 0) (>= (+ (* 1 c_2 ) (* (- 1) v2 ) ) 0) (>= (+ (* (- 1) c_2 ) (* 1 v2 ) ) 0) (>= (+ (* 1 c_3 ) (* (- 1) m ) ) 0) (>= (+ (* (- 1) c_3 ) (* 1 m ) ) 0) (>= (+ (* 1 c_4 ) (* (- 1) n ) ) 0) (>= (+ (* (- 1) c_4 ) (* 1 n ) ) 0) ) (>= (+ (* 1 c_20 ) (* 1 c_21 m ) (* 1 c_22 n ) (* 1 c_23 n ) ) 0) )))
(assert (forall ((v1 Real) (v2 Real) (m Real) (n Real) ) (=> (and (>= (+ (* (- 1) 1) (* (- 1) c_10 ) (* (- 1) c_11 m ) (* (- 1) c_12 n ) (* (- 1) c_13 n ) ) 0) (>= (* 1 n ) 0) (>= (+ (* (- 1) 1) (* 1 m ) ) 0) (>= (+ (* 1 c_1 ) (* (- 1) v1 ) ) 0) (>= (+ (* (- 1) c_1 ) (* 1 v1 ) ) 0) (>= (+ (* 1 c_2 ) (* (- 1) v2 ) ) 0) (>= (+ (* (- 1) c_2 ) (* 1 v2 ) ) 0) (>= (+ (* 1 c_3 ) (* (- 1) m ) ) 0) (>= (+ (* (- 1) c_3 ) (* 1 m ) ) 0) (>= (+ (* 1 c_4 ) (* (- 1) n ) ) 0) (>= (+ (* (- 1) c_4 ) (* 1 n ) ) 0) ) (>= (+ (* 1 c_15 ) (* 1 c_16 m ) (* 1 c_17 n ) (* 1 c_18 n ) ) 0) )))
(assert (forall ((v1 Real) (v2 Real) (m Real) (n Real) ) (=> (and (>= (+ (* (- 1) 1) (* (- 1) c_10 ) (* (- 1) c_11 m ) (* (- 1) c_12 n ) (* (- 1) c_13 n ) ) 0) (>= (* 1 n ) 0) (>= (+ (* (- 1) 1) (* 1 m ) ) 0) (>= (+ (* 1 c_1 ) (* (- 1) v1 ) ) 0) (>= (+ (* (- 1) c_1 ) (* 1 v1 ) ) 0) (>= (+ (* 1 c_2 ) (* (- 1) v2 ) ) 0) (>= (+ (* (- 1) c_2 ) (* 1 v2 ) ) 0) (>= (+ (* 1 c_3 ) (* (- 1) m ) ) 0) (>= (+ (* (- 1) c_3 ) (* 1 m ) ) 0) (>= (+ (* 1 c_4 ) (* (- 1) n ) ) 0) (>= (+ (* (- 1) c_4 ) (* 1 n ) ) 0) ) (>= (+ (* 1 c_20 ) (* 1 c_21 m ) (* 1 c_22 n ) (* 1 c_23 n ) ) 0) )))
(assert (forall ((v1 Real) (v2 Real) (m Real) (n Real) ) (=> (and (>= (+ (* (- 1) 1) (* (- 1) n ) ) 0) (>= (+ (* 1 c_1 ) (* (- 1) v1 ) ) 0) (>= (+ (* (- 1) c_1 ) (* 1 v1 ) ) 0) (>= (+ (* 1 c_2 ) (* (- 1) v2 ) ) 0) (>= (+ (* (- 1) c_2 ) (* 1 v2 ) ) 0) (>= (+ (* 1 c_3 ) (* (- 1) m ) ) 0) (>= (+ (* (- 1) c_3 ) (* 1 m ) ) 0) (>= (+ (* 1 c_4 ) (* (- 1) n ) ) 0) (>= (+ (* (- 1) c_4 ) (* 1 n ) ) 0) ) (>= (* 1 c_0 ) 0) )))
(assert (forall ((v1 Real) (v2 Real) (m Real) (n Real) ) (=> (and (>= (* (- 1) m ) 0) (>= (+ (* 1 c_1 ) (* (- 1) v1 ) ) 0) (>= (+ (* (- 1) c_1 ) (* 1 v1 ) ) 0) (>= (+ (* 1 c_2 ) (* (- 1) v2 ) ) 0) (>= (+ (* (- 1) c_2 ) (* 1 v2 ) ) 0) (>= (+ (* 1 c_3 ) (* (- 1) m ) ) 0) (>= (+ (* (- 1) c_3 ) (* 1 m ) ) 0) (>= (+ (* 1 c_4 ) (* (- 1) n ) ) 0) (>= (+ (* (- 1) c_4 ) (* 1 n ) ) 0) ) (>= (* 1 c_0 ) 0) )))
(assert (forall ((v1 Real) (v2 Real) (m Real) (n Real) ) (=> (and (>= (+ (* (- 1) 1) (* (- 1) c_5 ) (* (- 1) c_6 m ) (* (- 1) c_7 n ) (* 1 c_8 ) (* (- 1) c_8 v1 ) (* (- 1) c_9 ) (* (- 1) c_9 v2 ) ) 0) (>= (+ (* (- 1) 1) (* 1 m ) (* (- 1) v2 ) ) 0) (>= (+ (* (- 1) 1) (* 1 v1 ) ) 0) (>= (+ (* 1 c_5 ) (* 1 c_6 m ) (* 1 c_7 n ) (* 1 c_8 v1 ) (* 1 c_9 v2 ) ) 0) (>= (+ (* 1 c_10 ) (* 1 c_11 m ) (* 1 c_12 n ) (* 1 c_13 v1 ) (* 1 c_14 v2 ) ) 0) ) (>= (+ (* 1 c_15 ) (* 1 c_16 m ) (* 1 c_17 n ) (* (- 1) c_18 ) (* 1 c_18 v1 ) (* 1 c_19 ) (* 1 c_19 v2 ) ) 0) )))
(assert (forall ((v1 Real) (v2 Real) (m Real) (n Real) ) (=> (and (>= (+ (* (- 1) 1) (* (- 1) c_5 ) (* (- 1) c_6 m ) (* (- 1) c_7 n ) (* 1 c_8 ) (* (- 1) c_8 v1 ) (* (- 1) c_9 ) (* (- 1) c_9 v2 ) ) 0) (>= (+ (* (- 1) 1) (* 1 m ) (* (- 1) v2 ) ) 0) (>= (+ (* (- 1) 1) (* 1 v1 ) ) 0) (>= (+ (* 1 c_5 ) (* 1 c_6 m ) (* 1 c_7 n ) (* 1 c_8 v1 ) (* 1 c_9 v2 ) ) 0) (>= (+ (* 1 c_10 ) (* 1 c_11 m ) (* 1 c_12 n ) (* 1 c_13 v1 ) (* 1 c_14 v2 ) ) 0) ) (>= (+ (* 1 c_20 ) (* 1 c_21 m ) (* 1 c_22 n ) (* (- 1) c_23 ) (* 1 c_23 v1 ) (* 1 c_24 ) (* 1 c_24 v2 ) ) 0) )))
(assert (forall ((v1 Real) (v2 Real) (m Real) (n Real) ) (=> (and (>= (+ (* (- 1) 1) (* (- 1) c_10 ) (* (- 1) c_11 m ) (* (- 1) c_12 n ) (* 1 c_13 ) (* (- 1) c_13 v1 ) (* (- 1) c_14 ) (* (- 1) c_14 v2 ) ) 0) (>= (+ (* (- 1) 1) (* 1 m ) (* (- 1) v2 ) ) 0) (>= (+ (* (- 1) 1) (* 1 v1 ) ) 0) (>= (+ (* 1 c_5 ) (* 1 c_6 m ) (* 1 c_7 n ) (* 1 c_8 v1 ) (* 1 c_9 v2 ) ) 0) (>= (+ (* 1 c_10 ) (* 1 c_11 m ) (* 1 c_12 n ) (* 1 c_13 v1 ) (* 1 c_14 v2 ) ) 0) ) (>= (+ (* 1 c_15 ) (* 1 c_16 m ) (* 1 c_17 n ) (* (- 1) c_18 ) (* 1 c_18 v1 ) (* 1 c_19 ) (* 1 c_19 v2 ) ) 0) )))
(assert (forall ((v1 Real) (v2 Real) (m Real) (n Real) ) (=> (and (>= (+ (* (- 1) 1) (* (- 1) c_10 ) (* (- 1) c_11 m ) (* (- 1) c_12 n ) (* 1 c_13 ) (* (- 1) c_13 v1 ) (* (- 1) c_14 ) (* (- 1) c_14 v2 ) ) 0) (>= (+ (* (- 1) 1) (* 1 m ) (* (- 1) v2 ) ) 0) (>= (+ (* (- 1) 1) (* 1 v1 ) ) 0) (>= (+ (* 1 c_5 ) (* 1 c_6 m ) (* 1 c_7 n ) (* 1 c_8 v1 ) (* 1 c_9 v2 ) ) 0) (>= (+ (* 1 c_10 ) (* 1 c_11 m ) (* 1 c_12 n ) (* 1 c_13 v1 ) (* 1 c_14 v2 ) ) 0) ) (>= (+ (* 1 c_20 ) (* 1 c_21 m ) (* 1 c_22 n ) (* (- 1) c_23 ) (* 1 c_23 v1 ) (* 1 c_24 ) (* 1 c_24 v2 ) ) 0) )))
(assert (forall ((v1 Real) (v2 Real) (m Real) (n Real) ) (=> (and (>= (+ (* (- 1) 1) (* (- 1) c_5 ) (* (- 1) c_6 m ) (* (- 1) c_7 n ) (* 1 c_8 ) (* (- 1) c_8 v1 ) (* (- 1) c_9 ) (* (- 1) c_9 v2 ) ) 0) (>= (+ (* (- 1) 1) (* 1 m ) (* (- 1) v2 ) ) 0) (>= (+ (* (- 1) 1) (* 1 v1 ) ) 0) (>= (+ (* 1 c_15 ) (* 1 c_16 m ) (* 1 c_17 n ) (* 1 c_18 v1 ) (* 1 c_19 v2 ) ) 0) (>= (+ (* 1 c_20 ) (* 1 c_21 m ) (* 1 c_22 n ) (* 1 c_23 v1 ) (* 1 c_24 v2 ) ) 0) ) (>= (+ (* 1 c_15 ) (* 1 c_16 m ) (* 1 c_17 n ) (* (- 1) c_18 ) (* 1 c_18 v1 ) (* 1 c_19 ) (* 1 c_19 v2 ) ) 0) )))
(assert (forall ((v1 Real) (v2 Real) (m Real) (n Real) ) (=> (and (>= (+ (* (- 1) 1) (* (- 1) c_5 ) (* (- 1) c_6 m ) (* (- 1) c_7 n ) (* 1 c_8 ) (* (- 1) c_8 v1 ) (* (- 1) c_9 ) (* (- 1) c_9 v2 ) ) 0) (>= (+ (* (- 1) 1) (* 1 m ) (* (- 1) v2 ) ) 0) (>= (+ (* (- 1) 1) (* 1 v1 ) ) 0) (>= (+ (* 1 c_15 ) (* 1 c_16 m ) (* 1 c_17 n ) (* 1 c_18 v1 ) (* 1 c_19 v2 ) ) 0) (>= (+ (* 1 c_20 ) (* 1 c_21 m ) (* 1 c_22 n ) (* 1 c_23 v1 ) (* 1 c_24 v2 ) ) 0) ) (>= (+ (* 1 c_20 ) (* 1 c_21 m ) (* 1 c_22 n ) (* (- 1) c_23 ) (* 1 c_23 v1 ) (* 1 c_24 ) (* 1 c_24 v2 ) ) 0) )))
(assert (forall ((v1 Real) (v2 Real) (m Real) (n Real) ) (=> (and (>= (+ (* (- 1) 1) (* (- 1) c_10 ) (* (- 1) c_11 m ) (* (- 1) c_12 n ) (* 1 c_13 ) (* (- 1) c_13 v1 ) (* (- 1) c_14 ) (* (- 1) c_14 v2 ) ) 0) (>= (+ (* (- 1) 1) (* 1 m ) (* (- 1) v2 ) ) 0) (>= (+ (* (- 1) 1) (* 1 v1 ) ) 0) (>= (+ (* 1 c_15 ) (* 1 c_16 m ) (* 1 c_17 n ) (* 1 c_18 v1 ) (* 1 c_19 v2 ) ) 0) (>= (+ (* 1 c_20 ) (* 1 c_21 m ) (* 1 c_22 n ) (* 1 c_23 v1 ) (* 1 c_24 v2 ) ) 0) ) (>= (+ (* 1 c_15 ) (* 1 c_16 m ) (* 1 c_17 n ) (* (- 1) c_18 ) (* 1 c_18 v1 ) (* 1 c_19 ) (* 1 c_19 v2 ) ) 0) )))
(assert (forall ((v1 Real) (v2 Real) (m Real) (n Real) ) (=> (and (>= (+ (* (- 1) 1) (* (- 1) c_10 ) (* (- 1) c_11 m ) (* (- 1) c_12 n ) (* 1 c_13 ) (* (- 1) c_13 v1 ) (* (- 1) c_14 ) (* (- 1) c_14 v2 ) ) 0) (>= (+ (* (- 1) 1) (* 1 m ) (* (- 1) v2 ) ) 0) (>= (+ (* (- 1) 1) (* 1 v1 ) ) 0) (>= (+ (* 1 c_15 ) (* 1 c_16 m ) (* 1 c_17 n ) (* 1 c_18 v1 ) (* 1 c_19 v2 ) ) 0) (>= (+ (* 1 c_20 ) (* 1 c_21 m ) (* 1 c_22 n ) (* 1 c_23 v1 ) (* 1 c_24 v2 ) ) 0) ) (>= (+ (* 1 c_20 ) (* 1 c_21 m ) (* 1 c_22 n ) (* (- 1) c_23 ) (* 1 c_23 v1 ) (* 1 c_24 ) (* 1 c_24 v2 ) ) 0) )))
(assert (forall ((v1 Real) (v2 Real) (m Real) (n Real) ) (=> (and (>= (+ (* (- 1) 1) (* (- 1) c_5 ) (* (- 1) c_6 m ) (* (- 1) c_7 n ) (* (- 1) c_8 v1 ) ) 0) (>= (+ (* (- 1) m ) (* 1 v2 ) ) 0) (>= (+ (* (- 1) 1) (* 1 v1 ) ) 0) (>= (+ (* 1 c_5 ) (* 1 c_6 m ) (* 1 c_7 n ) (* 1 c_8 v1 ) (* 1 c_9 v2 ) ) 0) (>= (+ (* 1 c_10 ) (* 1 c_11 m ) (* 1 c_12 n ) (* 1 c_13 v1 ) (* 1 c_14 v2 ) ) 0) ) (>= (+ (* 1 c_15 ) (* 1 c_16 m ) (* 1 c_17 n ) (* 1 c_18 v1 ) ) 0) )))
(assert (forall ((v1 Real) (v2 Real) (m Real) (n Real) ) (=> (and (>= (+ (* (- 1) 1) (* (- 1) c_5 ) (* (- 1) c_6 m ) (* (- 1) c_7 n ) (* (- 1) c_8 v1 ) ) 0) (>= (+ (* (- 1) m ) (* 1 v2 ) ) 0) (>= (+ (* (- 1) 1) (* 1 v1 ) ) 0) (>= (+ (* 1 c_5 ) (* 1 c_6 m ) (* 1 c_7 n ) (* 1 c_8 v1 ) (* 1 c_9 v2 ) ) 0) (>= (+ (* 1 c_10 ) (* 1 c_11 m ) (* 1 c_12 n ) (* 1 c_13 v1 ) (* 1 c_14 v2 ) ) 0) ) (>= (+ (* 1 c_20 ) (* 1 c_21 m ) (* 1 c_22 n ) (* 1 c_23 v1 ) ) 0) )))
(assert (forall ((v1 Real) (v2 Real) (m Real) (n Real) ) (=> (and (>= (+ (* (- 1) 1) (* (- 1) c_10 ) (* (- 1) c_11 m ) (* (- 1) c_12 n ) (* (- 1) c_13 v1 ) ) 0) (>= (+ (* (- 1) m ) (* 1 v2 ) ) 0) (>= (+ (* (- 1) 1) (* 1 v1 ) ) 0) (>= (+ (* 1 c_5 ) (* 1 c_6 m ) (* 1 c_7 n ) (* 1 c_8 v1 ) (* 1 c_9 v2 ) ) 0) (>= (+ (* 1 c_10 ) (* 1 c_11 m ) (* 1 c_12 n ) (* 1 c_13 v1 ) (* 1 c_14 v2 ) ) 0) ) (>= (+ (* 1 c_15 ) (* 1 c_16 m ) (* 1 c_17 n ) (* 1 c_18 v1 ) ) 0) )))
(assert (forall ((v1 Real) (v2 Real) (m Real) (n Real) ) (=> (and (>= (+ (* (- 1) 1) (* (- 1) c_10 ) (* (- 1) c_11 m ) (* (- 1) c_12 n ) (* (- 1) c_13 v1 ) ) 0) (>= (+ (* (- 1) m ) (* 1 v2 ) ) 0) (>= (+ (* (- 1) 1) (* 1 v1 ) ) 0) (>= (+ (* 1 c_5 ) (* 1 c_6 m ) (* 1 c_7 n ) (* 1 c_8 v1 ) (* 1 c_9 v2 ) ) 0) (>= (+ (* 1 c_10 ) (* 1 c_11 m ) (* 1 c_12 n ) (* 1 c_13 v1 ) (* 1 c_14 v2 ) ) 0) ) (>= (+ (* 1 c_20 ) (* 1 c_21 m ) (* 1 c_22 n ) (* 1 c_23 v1 ) ) 0) )))
(assert (forall ((v1 Real) (v2 Real) (m Real) (n Real) ) (=> (and (>= (+ (* (- 1) 1) (* (- 1) c_5 ) (* (- 1) c_6 m ) (* (- 1) c_7 n ) (* (- 1) c_8 v1 ) ) 0) (>= (+ (* (- 1) m ) (* 1 v2 ) ) 0) (>= (+ (* (- 1) 1) (* 1 v1 ) ) 0) (>= (+ (* 1 c_15 ) (* 1 c_16 m ) (* 1 c_17 n ) (* 1 c_18 v1 ) (* 1 c_19 v2 ) ) 0) (>= (+ (* 1 c_20 ) (* 1 c_21 m ) (* 1 c_22 n ) (* 1 c_23 v1 ) (* 1 c_24 v2 ) ) 0) ) (>= (+ (* 1 c_15 ) (* 1 c_16 m ) (* 1 c_17 n ) (* 1 c_18 v1 ) ) 0) )))
(assert (forall ((v1 Real) (v2 Real) (m Real) (n Real) ) (=> (and (>= (+ (* (- 1) 1) (* (- 1) c_5 ) (* (- 1) c_6 m ) (* (- 1) c_7 n ) (* (- 1) c_8 v1 ) ) 0) (>= (+ (* (- 1) m ) (* 1 v2 ) ) 0) (>= (+ (* (- 1) 1) (* 1 v1 ) ) 0) (>= (+ (* 1 c_15 ) (* 1 c_16 m ) (* 1 c_17 n ) (* 1 c_18 v1 ) (* 1 c_19 v2 ) ) 0) (>= (+ (* 1 c_20 ) (* 1 c_21 m ) (* 1 c_22 n ) (* 1 c_23 v1 ) (* 1 c_24 v2 ) ) 0) ) (>= (+ (* 1 c_20 ) (* 1 c_21 m ) (* 1 c_22 n ) (* 1 c_23 v1 ) ) 0) )))
(assert (forall ((v1 Real) (v2 Real) (m Real) (n Real) ) (=> (and (>= (+ (* (- 1) 1) (* (- 1) c_10 ) (* (- 1) c_11 m ) (* (- 1) c_12 n ) (* (- 1) c_13 v1 ) ) 0) (>= (+ (* (- 1) m ) (* 1 v2 ) ) 0) (>= (+ (* (- 1) 1) (* 1 v1 ) ) 0) (>= (+ (* 1 c_15 ) (* 1 c_16 m ) (* 1 c_17 n ) (* 1 c_18 v1 ) (* 1 c_19 v2 ) ) 0) (>= (+ (* 1 c_20 ) (* 1 c_21 m ) (* 1 c_22 n ) (* 1 c_23 v1 ) (* 1 c_24 v2 ) ) 0) ) (>= (+ (* 1 c_15 ) (* 1 c_16 m ) (* 1 c_17 n ) (* 1 c_18 v1 ) ) 0) )))
(assert (forall ((v1 Real) (v2 Real) (m Real) (n Real) ) (=> (and (>= (+ (* (- 1) 1) (* (- 1) c_10 ) (* (- 1) c_11 m ) (* (- 1) c_12 n ) (* (- 1) c_13 v1 ) ) 0) (>= (+ (* (- 1) m ) (* 1 v2 ) ) 0) (>= (+ (* (- 1) 1) (* 1 v1 ) ) 0) (>= (+ (* 1 c_15 ) (* 1 c_16 m ) (* 1 c_17 n ) (* 1 c_18 v1 ) (* 1 c_19 v2 ) ) 0) (>= (+ (* 1 c_20 ) (* 1 c_21 m ) (* 1 c_22 n ) (* 1 c_23 v1 ) (* 1 c_24 v2 ) ) 0) ) (>= (+ (* 1 c_20 ) (* 1 c_21 m ) (* 1 c_22 n ) (* 1 c_23 v1 ) ) 0) )))
(assert (forall ((v1 Real) (v2 Real) (m Real) (n Real) ) (=> (and (>= (* (- 1) v1 ) 0) (>= (+ (* 1 c_5 ) (* 1 c_6 m ) (* 1 c_7 n ) (* 1 c_8 v1 ) (* 1 c_9 v2 ) ) 0) (>= (+ (* 1 c_10 ) (* 1 c_11 m ) (* 1 c_12 n ) (* 1 c_13 v1 ) (* 1 c_14 v2 ) ) 0) ) (>= (* 1 c_0 ) 0) )))
(assert (forall ((v1 Real) (v2 Real) (m Real) (n Real) ) (=> (and (>= (* (- 1) v1 ) 0) (>= (+ (* 1 c_15 ) (* 1 c_16 m ) (* 1 c_17 n ) (* 1 c_18 v1 ) (* 1 c_19 v2 ) ) 0) (>= (+ (* 1 c_20 ) (* 1 c_21 m ) (* 1 c_22 n ) (* 1 c_23 v1 ) (* 1 c_24 v2 ) ) 0) ) (>= (* 1 c_0 ) 0) )))
(check-sat)
(get-model)

